rcpsp/heur_output_or_constraints/Log=1/heurj120.txt
encoding rcpsp/j120.sm/j12053_7.sm nv: 4667616 nc: 9553519 enctime: 123.04
encoding rcpsp/j120.sm/j12053_7.sm nv: 812056 nc: 1658209 enctime: 12.78
c File: j12053_7.smnaiveor1.wcnf
c timeout
c final solution cost: 125
c CPU time: 75.897197
s UNKNOWN

c File: j12053_7.smor1.wcnf
c timeout
c CPU time: 61.383405
s UNKNOWN


rcpsp/heur_output_or_constraints/Log=1/heurj120.txt
encoding rcpsp/j120.sm/j12053_8.sm nv: 3673614 nc: 7555265 enctime: 94.70
encoding rcpsp/j120.sm/j12053_8.sm nv: 792786 nc: 1626941 enctime: 11.66
c File: j12053_8.smnaiveor1.wcnf
c timeout
c final solution cost: 148
c CPU time: 71.858981
s UNKNOWN

c File: j12053_8.smor1.wcnf
c timeout
c CPU time: 61.234790
s UNKNOWN


rcpsp/heur_output_or_constraints/Log=1/heurj120.txt
encoding rcpsp/j120.sm/j12053_9.sm nv: 3344016 nc: 6947230 enctime: 95.74
encoding rcpsp/j120.sm/j12053_9.sm nv: 798928 nc: 1655958 enctime: 12.39
c File: j12053_9.smnaiveor1.wcnf
c timeout
c final solution cost: 168
c CPU time: 73.933895
s UNKNOWN

c File: j12053_9.smor1.wcnf
c timeout
c CPU time: 61.709925
s UNKNOWN


rcpsp/heur_output_or_constraints/Log=1/heurj120.txt
encoding rcpsp/j120.sm/j1205_3.sm nv: 1123254 nc: 2476712 enctime: 51.58
encoding rcpsp/j120.sm/j1205_3.sm nv: 90396 nc: 195046 enctime: 0.94
c File: j1205_3.smnaiveor1.wcnf
c timeout
c final solution cost: 52
c CPU time: 67.650684
s UNKNOWN

c File: j1205_3.smor1.wcnf
c timeout
c final solution cost: 52
c CPU time: 60.183773
s UNKNOWN


rcpsp/heur_output_or_constraints/Log=1/heurj120.txt
encoding rcpsp/j120.sm/j12054_10.sm nv: 4424112 nc: 9001151 enctime: 111.47
encoding rcpsp/j120.sm/j12054_10.sm nv: 782838 nc: 1589318 enctime: 10.71
c File: j12054_10.smnaiveor1.wcnf
c timeout
c final solution cost: 103
c CPU time: 73.230655
s UNKNOWN

c File: j12054_10.smor1.wcnf
c timeout
c final solution cost: 103
c CPU time: 61.307245
s UNKNOWN


rcpsp/heur_output_or_constraints/Log=1/heurj120.txt
encoding rcpsp/j120.sm/j12054_1.sm nv: 4156780 nc: 8466865 enctime: 86.57
encoding rcpsp/j120.sm/j12054_1.sm nv: 717620 nc: 1458497 enctime: 9.50
c File: j12054_1.smnaiveor1.wcnf
c timeout
c final solution cost: 466
c CPU time: 71.930893
s UNKNOWN

c File: j12054_1.smor1.wcnf
c timeout
c CPU time: 61.008967
s UNKNOWN


rcpsp/heur_output_or_constraints/Log=1/heurj120.txt
encoding rcpsp/j120.sm/j12054_2.sm nv: 4565956 nc: 9317935 enctime: 107.07
encoding rcpsp/j120.sm/j12054_2.sm nv: 805345 nc: 1639909 enctime: 11.29
c File: j12054_2.smnaiveor1.wcnf
c timeout
c final solution cost: 256
c CPU time: 73.924516
s UNKNOWN

c File: j12054_2.smor1.wcnf
c timeout
c final solution cost: 107
c CPU time: 61.689152
s UNKNOWN


rcpsp/heur_output_or_constraints/Log=1/heurj120.txt
encoding rcpsp/j120.sm/j12054_3.sm nv: 5157936 nc: 10526503 enctime: 126.24
encoding rcpsp/j120.sm/j12054_3.sm nv: 794682 nc: 1617829 enctime: 17.65
c File: j12054_3.smnaiveor1.wcnf
c timeout
c final solution cost: 104
c CPU time: 76.311013
s UNKNOWN

c File: j12054_3.smor1.wcnf
c timeout
c CPU time: 61.471220
s UNKNOWN


rcpsp/heur_output_or_constraints/Log=1/heurj120.txt
encoding rcpsp/j120.sm/j12054_4.sm nv: 4124575 nc: 8424025 enctime: 99.44
encoding rcpsp/j120.sm/j12054_4.sm nv: 802900 nc: 1636522 enctime: 12.15
c File: j12054_4.smnaiveor1.wcnf
c timeout
c final solution cost: 146
c CPU time: 72.429355
s UNKNOWN

c File: j12054_4.smor1.wcnf
c timeout
c final solution cost: 113
c CPU time: 61.364473
s UNKNOWN


rcpsp/heur_output_or_constraints/Log=1/heurj120.txt
encoding rcpsp/j120.sm/j12054_5.sm nv: 4648416 nc: 9478793 enctime: 96.71
encoding rcpsp/j120.sm/j12054_5.sm nv: 786546 nc: 1600273 enctime: 10.68
c File: j12054_5.smnaiveor1.wcnf
c timeout
c final solution cost: 364
c CPU time: 73.363121
s UNKNOWN

c File: j12054_5.smor1.wcnf
c timeout
c CPU time: 61.108915
s UNKNOWN


rcpsp/heur_output_or_constraints/Log=1/heurj120.txt
encoding rcpsp/j120.sm/j12054_6.sm nv: 4821066 nc: 9826866 enctime: 97.64
encoding rcpsp/j120.sm/j12054_6.sm nv: 755814 nc: 1536810 enctime: 10.35
c File: j12054_6.smnaiveor1.wcnf
c timeout
c final solution cost: 395
c CPU time: 73.358972
s UNKNOWN

c File: j12054_6.smor1.wcnf
c timeout
c CPU time: 61.050207
s UNKNOWN


rcpsp/heur_output_or_constraints/Log=1/heurj120.txt
encoding rcpsp/j120.sm/j12054_7.sm nv: 4160160 nc: 8507843 enctime: 88.44
encoding rcpsp/j120.sm/j12054_7.sm nv: 699780 nc: 1427539 enctime: 9.55
c File: j12054_7.smnaiveor1.wcnf
c timeout
c final solution cost: 109
c CPU time: 72.056428
s UNKNOWN

c File: j12054_7.smor1.wcnf
c timeout
c CPU time: 60.997151
s UNKNOWN


rcpsp/heur_output_or_constraints/Log=1/heurj120.txt
encoding rcpsp/j120.sm/j12054_8.sm nv: 4606010 nc: 9379701 enctime: 93.73
encoding rcpsp/j120.sm/j12054_8.sm nv: 704705 nc: 1431564 enctime: 9.71
c File: j12054_8.smnaiveor1.wcnf
c timeout
c final solution cost: 97
c CPU time: 72.935744
s UNKNOWN

c File: j12054_8.smor1.wcnf
c timeout
c CPU time: 60.966769
s UNKNOWN


rcpsp/heur_output_or_constraints/Log=1/heurj120.txt
encoding rcpsp/j120.sm/j12054_9.sm nv: 4326030 nc: 8831966 enctime: 88.93
encoding rcpsp/j120.sm/j12054_9.sm nv: 778550 nc: 1586094 enctime: 10.24
c File: j12054_9.smnaiveor1.wcnf
c timeout
c final solution cost: 110
c CPU time: 72.374701
s UNKNOWN

c File: j12054_9.smor1.wcnf
c timeout
c final solution cost: 106
c CPU time: 61.309359
s UNKNOWN


rcpsp/heur_output_or_constraints/Log=1/heurj120.txt
encoding rcpsp/j120.sm/j1205_4.sm nv: 1130040 nc: 2471667 enctime: 38.28
encoding rcpsp/j120.sm/j1205_4.sm nv: 103200 nc: 221574 enctime: 1.06
c File: j1205_4.smnaiveor1.wcnf
c timeout
c final solution cost: 56
c CPU time: 66.789824
s UNKNOWN

c File: j1205_4.smor1.wcnf
c timeout
c final solution cost: 55
c CPU time: 60.179844
s UNKNOWN


rcpsp/heur_output_or_constraints/Log=1/heurj120.txt
encoding rcpsp/j120.sm/j12055_10.sm nv: 5336960 nc: 10833607 enctime: 104.03
encoding rcpsp/j120.sm/j12055_10.sm nv: 700476 nc: 1418303 enctime: 7.23
c File: j12055_10.smnaiveor1.wcnf
c timeout
c final solution cost: 84
c CPU time: 73.698699
s UNKNOWN

c File: j12055_10.smor1.wcnf
c timeout
c CPU time: 60.925449
s UNKNOWN


rcpsp/heur_output_or_constraints/Log=1/heurj120.txt
encoding rcpsp/j120.sm/j12055_1.sm nv: 5029260 nc: 10236591 enctime: 100.21
encoding rcpsp/j120.sm/j12055_1.sm nv: 769000 nc: 1561505 enctime: 10.46
c File: j12055_1.smnaiveor1.wcnf
c timeout
c final solution cost: 514
c CPU time: 73.642406
s UNKNOWN

c File: j12055_1.smor1.wcnf
c timeout
c CPU time: 61.054865
s UNKNOWN


rcpsp/heur_output_or_constraints/Log=1/heurj120.txt
encoding rcpsp/j120.sm/j12055_2.sm nv: 6151235 nc: 12409276 enctime: 109.83
encoding rcpsp/j120.sm/j12055_2.sm nv: 736920 nc: 1483310 enctime: 10.46
c File: j12055_2.smnaiveor1.wcnf
c timeout
c final solution cost: 67
c CPU time: 73.979487
s UNKNOWN

c File: j12055_2.smor1.wcnf
c timeout
c final solution cost: 67
c CPU time: 61.173789
s UNKNOWN


rcpsp/heur_output_or_constraints/Log=1/heurj120.txt
encoding rcpsp/j120.sm/j12055_3.sm nv: 4905582 nc: 9978033 enctime: 101.88
encoding rcpsp/j120.sm/j12055_3.sm nv: 791967 nc: 1607423 enctime: 11.01
c File: j12055_3.smnaiveor1.wcnf
c timeout
c final solution cost: 113
c CPU time: 73.571384
s UNKNOWN

c File: j12055_3.smor1.wcnf
c timeout
c final solution cost: 97
c CPU time: 61.387967
s UNKNOWN


rcpsp/heur_output_or_constraints/Log=1/heurj120.txt
encoding rcpsp/j120.sm/j12055_4.sm nv: 6456204 nc: 13078239 enctime: 127.57
encoding rcpsp/j120.sm/j12055_4.sm nv: 785214 nc: 1586499 enctime: 11.65
c File: j12055_4.smnaiveor1.wcnf
c timeout
c final solution cost: 79
c CPU time: 75.969382
s UNKNOWN

c File: j12055_4.smor1.wcnf
c timeout
c final solution cost: 76
c CPU time: 61.308476
s UNKNOWN


rcpsp/heur_output_or_constraints/Log=1/heurj120.txt
encoding rcpsp/j120.sm/j12055_5.sm nv: 6434890 nc: 13039720 enctime: 127.60
encoding rcpsp/j120.sm/j12055_5.sm nv: 882280 nc: 1783960 enctime: 12.86
c File: j12055_5.smnaiveor1.wcnf
c timeout
c final solution cost: 210
c CPU time: 76.424679
s UNKNOWN

c File: j12055_5.smor1.wcnf
c timeout
c final solution cost: 85
c CPU time: 61.422292
s UNKNOWN


rcpsp/heur_output_or_constraints/Log=1/heurj120.txt
encoding rcpsp/j120.sm/j12055_6.sm nv: 5235706 nc: 10655165 enctime: 108.75
encoding rcpsp/j120.sm/j12055_6.sm nv: 747958 nc: 1518365 enctime: 8.11
c File: j12055_6.smnaiveor1.wcnf
c timeout
c final solution cost: 91
c CPU time: 74.373176
s UNKNOWN

c File: j12055_6.smor1.wcnf
c timeout
c CPU time: 61.054528
s UNKNOWN


rcpsp/heur_output_or_constraints/Log=1/heurj120.txt
encoding rcpsp/j120.sm/j12055_7.sm nv: 7096496 nc: 14341169 enctime: 134.43
encoding rcpsp/j120.sm/j12055_7.sm nv: 848144 nc: 1710023 enctime: 12.27
c File: j12055_7.smnaiveor1.wcnf
c timeout
c final solution cost: 205
c CPU time: 77.705481
s UNKNOWN

c File: j12055_7.smor1.wcnf
c timeout
c CPU time: 61.119902
s UNKNOWN


rcpsp/heur_output_or_constraints/Log=1/heurj120.txt
encoding rcpsp/j120.sm/j12055_8.sm nv: 5670567 nc: 11513479 enctime: 115.16
encoding rcpsp/j120.sm/j12055_8.sm nv: 776790 nc: 1573402 enctime: 11.09
c File: j12055_8.smnaiveor1.wcnf
c timeout
c final solution cost: 122
c CPU time: 75.142928
s UNKNOWN

c File: j12055_8.smor1.wcnf
c timeout
c CPU time: 61.063492
s UNKNOWN


rcpsp/heur_output_or_constraints/Log=1/heurj120.txt
encoding rcpsp/j120.sm/j12055_9.sm nv: 5497584 nc: 11146749 enctime: 111.24
encoding rcpsp/j120.sm/j12055_9.sm nv: 752028 nc: 1521132 enctime: 10.85
c File: j12055_9.smnaiveor1.wcnf
c timeout
c final solution cost: 82
c CPU time: 74.325908
s UNKNOWN

c File: j12055_9.smor1.wcnf
c timeout
c final solution cost: 82
c CPU time: 61.295479
s UNKNOWN


rcpsp/heur_output_or_constraints/Log=1/heurj120.txt
encoding rcpsp/j120.sm/j1205_5.sm nv: 1300203 nc: 2800159 enctime: 47.54
encoding rcpsp/j120.sm/j1205_5.sm nv: 102908 nc: 217414 enctime: 1.17
c File: j1205_5.smnaiveor1.wcnf
c optimal
c final solution cost: 42
c CPU time: 16.603056
s OPTIMUM FOUND

c File: j1205_5.smor1.wcnf
c optimal
c final solution cost: 42
c CPU time: 1.223613
s OPTIMUM FOUND


rcpsp/heur_output_or_constraints/Log=1/heurj120.txt
encoding rcpsp/j120.sm/j12056_10.sm nv: 3255716 nc: 6743353 enctime: 102.07
encoding rcpsp/j120.sm/j12056_10.sm nv: 1377040 nc: 2849627 enctime: 24.53
c File: j12056_10.smnaiveor1.wcnf
c timeout
c final solution cost: 318
c CPU time: 72.692980
s UNKNOWN

c File: j12056_10.smor1.wcnf
c timeout
c CPU time: 63.084661
s UNKNOWN


rcpsp/heur_output_or_constraints/Log=1/heurj120.txt
encoding rcpsp/j120.sm/j12056_1.sm nv: 3149952 nc: 6493655 enctime: 93.13
encoding rcpsp/j120.sm/j12056_1.sm nv: 1302384 nc: 2682497 enctime: 25.98
c File: j12056_1.smnaiveor1.wcnf
c timeout
c final solution cost: 313
c CPU time: 71.691059
s UNKNOWN

c File: j12056_1.smor1.wcnf
c timeout
c CPU time: 62.605579
s UNKNOWN


rcpsp/heur_output_or_constraints/Log=1/heurj120.txt
encoding rcpsp/j120.sm/j12056_2.sm nv: 3223804 nc: 6605952 enctime: 89.44
encoding rcpsp/j120.sm/j12056_2.sm nv: 1230208 nc: 2518572 enctime: 27.74
c File: j12056_2.smnaiveor1.wcnf
c timeout
c final solution cost: 223
c CPU time: 71.129343
s UNKNOWN

c File: j12056_2.smor1.wcnf
c timeout
c CPU time: 62.454485
s UNKNOWN


rcpsp/heur_output_or_constraints/Log=1/heurj120.txt
encoding rcpsp/j120.sm/j12056_3.sm nv: 3397424 nc: 7018069 enctime: 94.30
encoding rcpsp/j120.sm/j12056_3.sm nv: 1351719 nc: 2789594 enctime: 29.38
c File: j12056_3.smnaiveor1.wcnf
c timeout
c final solution cost: 269
c CPU time: 73.307359
s UNKNOWN

c File: j12056_3.smor1.wcnf
c timeout
c CPU time: 63.585907
s UNKNOWN


rcpsp/heur_output_or_constraints/Log=1/heurj120.txt
encoding rcpsp/j120.sm/j12056_4.sm nv: 2842026 nc: 5836371 enctime: 76.29
encoding rcpsp/j120.sm/j12056_4.sm nv: 1234167 nc: 2532363 enctime: 18.80
c File: j12056_4.smnaiveor1.wcnf
c timeout
c final solution cost: 269
c CPU time: 70.748897
s UNKNOWN

c File: j12056_4.smor1.wcnf
c timeout
c CPU time: 62.747195
s UNKNOWN


rcpsp/heur_output_or_constraints/Log=1/heurj120.txt
encoding rcpsp/j120.sm/j12056_5.sm nv: 3096801 nc: 6433115 enctime: 88.00
encoding rcpsp/j120.sm/j12056_5.sm nv: 1448877 nc: 3007327 enctime: 29.36
c File: j12056_5.smnaiveor1.wcnf
c timeout
c final solution cost: 450
c CPU time: 73.101665
s UNKNOWN

c File: j12056_5.smor1.wcnf
c timeout
c CPU time: 63.620594
s UNKNOWN


rcpsp/heur_output_or_constraints/Log=1/heurj120.txt
encoding rcpsp/j120.sm/j12056_6.sm nv: 3322092 nc: 6819079 enctime: 94.06
encoding rcpsp/j120.sm/j12056_6.sm nv: 1282788 nc: 2630731 enctime: 22.60
c File: j12056_6.smnaiveor1.wcnf
c timeout
c final solution cost: 497
c CPU time: 72.964658
s UNKNOWN

c File: j12056_6.smor1.wcnf
c timeout
c CPU time: 63.062451
s UNKNOWN


rcpsp/heur_output_or_constraints/Log=1/heurj120.txt
encoding rcpsp/j120.sm/j12056_7.sm nv: 3177108 nc: 6603825 enctime: 101.23
encoding rcpsp/j120.sm/j12056_7.sm nv: 1438602 nc: 2987688 enctime: 25.27
c File: j12056_7.smnaiveor1.wcnf
c timeout
c final solution cost: 410
c CPU time: 72.902517
s UNKNOWN

c File: j12056_7.smor1.wcnf
c timeout
c CPU time: 63.334572
s UNKNOWN


rcpsp/heur_output_or_constraints/Log=1/heurj120.txt
encoding rcpsp/j120.sm/j12056_8.sm nv: 3113298 nc: 6471807 enctime: 95.16
encoding rcpsp/j120.sm/j12056_8.sm nv: 1494198 nc: 3103757 enctime: 32.91
c File: j12056_8.smnaiveor1.wcnf
c timeout
c final solution cost: 467
c CPU time: 72.408692
s UNKNOWN

c File: j12056_8.smor1.wcnf
c timeout
c CPU time: 63.650623
s UNKNOWN


rcpsp/heur_output_or_constraints/Log=1/heurj120.txt
encoding rcpsp/j120.sm/j12056_9.sm nv: 3453200 nc: 7191209 enctime: 108.06
encoding rcpsp/j120.sm/j12056_9.sm nv: 1498650 nc: 3118088 enctime: 28.15
c File: j12056_9.smnaiveor1.wcnf
c timeout
c final solution cost: 320
c CPU time: 74.698936
s UNKNOWN

c File: j12056_9.smor1.wcnf
c timeout
c CPU time: 63.999647
s UNKNOWN


rcpsp/heur_output_or_constraints/Log=1/heurj120.txt
encoding rcpsp/j120.sm/j1205_6.sm nv: 1058561 nc: 2353479 enctime: 44.63
encoding rcpsp/j120.sm/j1205_6.sm nv: 102894 nc: 224530 enctime: 1.13
c File: j1205_6.smnaiveor1.wcnf
c timeout
c final solution cost: 59
c CPU time: 68.521595
s UNKNOWN

c File: j1205_6.smor1.wcnf
c timeout
c final solution cost: 59
c CPU time: 60.235797
s UNKNOWN


rcpsp/heur_output_or_constraints/Log=1/heurj120.txt
encoding rcpsp/j120.sm/j12057_10.sm nv: 5179255 nc: 10572113 enctime: 135.50
encoding rcpsp/j120.sm/j12057_10.sm nv: 1374405 nc: 2802183 enctime: 27.26
c File: j12057_10.smnaiveor1.wcnf
c timeout
c final solution cost: 262
c CPU time: 76.971190
s UNKNOWN

c File: j12057_10.smor1.wcnf
c timeout
c CPU time: 62.273283
s UNKNOWN


rcpsp/heur_output_or_constraints/Log=1/heurj120.txt
encoding rcpsp/j120.sm/j12057_1.sm nv: 5201102 nc: 10658567 enctime: 129.49
encoding rcpsp/j120.sm/j12057_1.sm nv: 1466033 nc: 3000839 enctime: 32.35
c File: j12057_1.smnaiveor1.wcnf
c timeout
c final solution cost: 303
c CPU time: 76.810546
s UNKNOWN

c File: j12057_1.smor1.wcnf
c timeout
c CPU time: 62.567316
s UNKNOWN


rcpsp/heur_output_or_constraints/Log=1/heurj120.txt
encoding rcpsp/j120.sm/j12057_2.sm nv: 5220532 nc: 10647101 enctime: 126.03
encoding rcpsp/j120.sm/j12057_2.sm nv: 1395822 nc: 2843451 enctime: 27.82
c File: j12057_2.smnaiveor1.wcnf
c timeout
c final solution cost: 178
c CPU time: 76.325187
s UNKNOWN

c File: j12057_2.smor1.wcnf
c timeout
c CPU time: 62.411802
s UNKNOWN


